c ---- [ banner ] ------------------------------------------------------------
c
c Kissat SAT Solver
c 
c Copyright (c) 2021-2022 Armin Biere University of Freiburg
c Copyright (c) 2019-2021 Armin Biere Johannes Kepler University Linz
c 
c Version 3.0.0 97917ddf2b12adc6f63c7b2a5a403a1ee7d81836
c /share/apps/gcc/7.3/bin/gcc -W -O -DNDEBUG 
c Mon Jul 25 20:22:07 +08 2022 Linux sm101 2.6.32-131.0.15.el6.x86_64 x86_64
c
c ---- [ parsing ] -----------------------------------------------------------
c
c opened and reading DIMACS file:
c
c   /home/vkondratev/data/Multipliers_2022/testing/testing_snakes/cnfs/s-n-b_5_9.cnf
c
c parsed 'p cnf 225 976' header
c closing input after reading 14895 bytes (15 KB)
c finished parsing after 0.00 seconds
c
c ---- [ solving ] -----------------------------------------------------------
c
c  seconds switched rate      trail   variables
c         MB reductions conflicts glue    remaining
c          level restarts redundant irredundant
c
c *  0.00  1 0 0 0  0 0   0   0 0% 0 976 225 100%
c {  0.00  1 0 0 0  0 0   0   0 0% 0 976 225 100%
c }  0.00  1 37 0 0 16 6 237 104 47% 4 966 225 100%
c 1  0.00  1 37 0 0 16 6 237 104 47% 4 966 225 100%
c
c ---- [ result ] ------------------------------------------------------------
c
s SATISFIABLE
v 1 -2 3 -4 5 6 -7 8 -9 -10 11 -12 13 14 -15 16 17 18 19 -20 21 22 -23 24 -25
v -26 27 -28 29 -30 -31 -32 -33 34 -35 -36 -37 -38 -39 -40 -41 -42 -43 -44 45
v -46 -47 -48 -49 50 -51 -52 -53 54 -55 -56 57 -58 -59 -60 -61 -62 63 -64 -65
v 66 -67 -68 -69 -70 -71 72 -73 -74 -75 -76 -77 -78 79 -80 -81 -82 -83 -84 85
v -86 -87 -88 89 90 -91 92 -93 94 -95 -96 97 -98 99 100 -101 102 103 -104 -105
v -106 107 108 109 -110 -111 112 113 114 115 116 -117 118 -119 -120 121 122
v 123 -124 -125 126 127 128 129 -130 131 132 133 134 135 136 137 -138 -139
v -140 141 142 143 -144 -145 146 -147 148 -149 -150 151 -152 153 154 -155 156
v -157 158 159 160 -161 162 -163 164 -165 166 167 -168 169 -170 171 172 173
v 174 -175 176 -177 178 179 -180 181 -182 183 -184 -185 186 -187 188 -189 190
v -191 -192 -193 194 195 -196 197 -198 199 200 201 202 -203 204 205 206 207
v 208 209 210 211 -212 213 214 215 216 -217 218 -219 220 221 -222 223 -224
v -225 0
c
c ---- [ profiling ] ---------------------------------------------------------
c
c           0.00   50.00 %  focused
c           0.00   50.00 %  search
c           0.00   50.00 %  parse
c           0.00    0.00 %  simplify
c =============================================
c           0.00  100.00 %  total
c
c ---- [ statistics ] --------------------------------------------------------
c
c conflicts:                              237            13169.59 per second
c decisions:                              933                3.94 per conflict
c propagations:                          6177           343243    per second
c restarts:                                16               14.81 interval
c
c ---- [ resources ] ---------------------------------------------------------
c
c maximum-resident-set-size:          1261568 bytes          1 MB
c process-time:                                              0.00 seconds
c
c ---- [ shutting down ] -----------------------------------------------------
c
c exit 10
